120
150
49
44
56
46
52
52
46
55
53
52
42
55
49
51
46
49
52
57
58
50
51
45
42
56
41
52
50
51
59
49
41
47
44
60
48
56
48
42
46
49
49
52
46
47
46
50
48
52
50
44
56
59
51
49
47
54
47
57
46
44
46
60
58
42
50
56
50
44
54
47
58
49
43
51
56
55
49
55
49
40
52
50
43
56
60
49
47
56
40
44
52
51
58
49
57
53
55
54
43
44
48
48
57
46
47
42
41
52
42
56
49
48
53
47
52
51
49
45
42
56
